language Essence 1.3

letting bot_end be
        [360, 8, 256, 64, 28, 345, 351, 36, 259, 9, 4, 57, 6, 80, 315, 349, 275, 217, 302, 350, 5; int(1..21)]
letting bot_start be
        [82, 288, 46, 281, 289, 138, 153, 319, 81, 292, 235, 344, 191, 363, 121, 111, 13, 39, 60, 132, 182; int(1..21)]
letting buffer_col be 2
letting buffer_row be 2
letting corridor_size be 1
letting n_shelves_col be 1
letting n_shelves_row be 24
letting shelf_col_size be 2
letting shelf_row_size be 1
